28 2 141278 
1898.0 440.0 22507.0 270.0 14148.0 3100.0 4650.0 30800.0 615.0 4975.0 1160.0 4225.0 510.0 11880.0 479.0 440.0 490.0 330.0 110.0 560.0 24355.0 2885.0 11748.0 4550.0 750.0 3720.0 1950.0 10500.0 
45 0 85 150 65 95 30 0 170 0 40 25 20 0 0 25 0 0 25 0 165 0 85 0 0 0 0 100 
30 20 125 5 80 25 35 73 12 15 15 40 5 10 10 12 10 9 0 20 60 40 50 36 49 40 19 150 
600 600 
0.0 93.0 
